Version identifier: 22.1.0.0 | 2022-03-09 | 1a383f8ce
CPXPARAM_Threads                                 1
CPXPARAM_MIP_Strategy_VariableSelect             3
CPXPARAM_TimeLimit                               599.999921277
1 of 1 MIP starts provided solutions.
MIP start 'm1' defined initial solution with objective 83.0000.
Tried aggregator 2 times.
MIP Presolve eliminated 44 rows and 1 columns.
MIP Presolve added 36 rows and 9 columns.
MIP Presolve modified 5 coefficients.
Aggregator did 9 substitutions.
Reduced MIP has 1809 rows, 7800 columns, and 147896 nonzeros.
Reduced MIP has 7800 binaries, 0 generals, 0 SOSs, and 0 indicators.
Presolve time = 0.14 sec. (178.24 ticks)
Probing time = 0.03 sec. (29.04 ticks)
Tried aggregator 1 time.
Detecting symmetries...
Reduced MIP has 1809 rows, 7800 columns, and 147896 nonzeros.
Reduced MIP has 7800 binaries, 0 generals, 0 SOSs, and 0 indicators.
Presolve time = 0.10 sec. (139.90 ticks)
Probing time = 0.03 sec. (29.04 ticks)
Clique table members: 302.
MIP emphasis: balance optimality and feasibility.
MIP search method: dynamic search.
Parallel mode: none, using 1 thread.
Root relaxation solution time = 0.19 sec. (245.47 ticks)

        Nodes                                         Cuts/
   Node  Left     Objective  IInf  Best Integer    Best Bound    ItCnt     Gap

*     0+    0                           83.0000    45150.0000              --- 
      0     0      300.0000   107       83.0000      300.0000     1402  261.45%
*     0+    0                          300.0000      300.0000             0.00%
      0     0        cutoff            300.0000      300.0000     1402    0.00%
Elapsed time = 0.95 sec. (1010.23 ticks, tree = 0.01 MB, solutions = 2)

Root node processing (before b&c):
  Real time             =    0.96 sec. (1010.53 ticks)
Sequential b&c:
  Real time             =    0.00 sec. (0.00 ticks)
                          ------------
Total (root+branch&cut) =    0.96 sec. (1010.53 ticks)
Primal:	300
Dual:	300
Status:	Optimal
Time:	0.98
Sequence:
	0
	14
	15
	21
	21
	16
	21
	21
	6
	9
	9
	21
	12
	21
	21
	3
	21
	24
	20
	23
	21
	15
	17
	24
	12
	3
	11
	13
	13
	13
	20
	13
	13
	13
	21
	13
	13
	16
	20
	17
	0
	3
	12
	13
	11
	6
	21
	21
	12
	9
	6
	7
	20
	20
	5
	9
	21
	0
	9
	17
	3
	0
	9
	3
	16
	6
	0
	17
	3
	15
	16
	4
	20
	5
	9
	0
	3
	3
	3
	6
	3
	3
	3
	7
	7
	20
	7
	22
	22
	11
	4
	18
	9
	18
	5
	15
	5
	24
	12
	18
	2
	12
	19
	5
	22
	16
	3
	9
	5
	13
	23
	15
	5
	20
	12
	20
	14
	9
	22
	0
	20
	20
	20
	20
	17
	20
	0
	3
	10
	20
	10
	10
	6
	1
	10
	6
	6
	6
	6
	16
	6
	6
	6
	22
	14
	14
	4
	16
	12
	8
	24
	1
	6
	1
	23
	12
	6
	6
	6
	6
	13
	5
	0
	16
	3
	14
	1
	12
	23
	22
	17
	1
	4
	17
	4
	4
	4
	4
	14
	4
	4
	4
	0
	6
	4
	20
	4
	6
	4
	4
	12
	8
	0
	2
	7
	4
	9
	14
	10
	6
	6
	9
	8
	15
	11
	16
	13
	0
	3
	3
	0
	0
	3
	3
	18
	5
	12
	15
	6
	3
	3
	3
	0
	8
	8
	8
	17
	8
	8
	16
	6
	8
	3
	8
	21
	0
	16
	3
	9
	11
	3
	16
	5
	0
	6
	16
	6
	0
	0
	16
	1
	24
	16
	5
	16
	10
	1
	16
	20
	24
	16
	3
	6
	5
	1
	12
	1
	1
	6
	3
	1
	12
	2
	1
	6
	16
	6
	23
	0
	6
	9
	0
	2
	22
	12
	22
	11
	11
	16
	17
	10
	16
	6
	13
	23
	21
	15
	1
	20
	22
